# Frequency Calculation Example
# Includes imaginary frequency check

! PBE0 def2-SVP Freq TightSCF

%pal nprocs 4 end

* xyz 0 1
  C  0.0  0.0  0.0
  H  0.0  0.0  1.1
  H  1.0  0.0  0.0
  H  -0.5  0.866  0.0
  H  -0.5 -0.866  0.0
* 
